Minimize
	value: tt

Subject to
tt + 1000 s_1_1 > 0.0
tt - t_1_1 - 1000.000000 s_1_1  > -998.514000
tt + 1000 s_2_1 > 0.0
tt - t_2_1 - 1000.000000 s_2_1  > -998.886556
tt + 1000 s_1_2 > 0.0
tt - t_1_2 - 1000.000000 s_1_2  > -990.321000
tt + 1000 s_2_2 > 0.0
tt - t_2_2 - 1000.000000 s_2_2  > -994.111000
tt + 1000 s_1_3 > 0.0
tt - t_1_3 - 1000.000000 s_1_3  > -994.365200
tt + 1000 s_2_3 > 0.0
tt - t_2_3 - 1000.000000 s_2_3  > -996.500083
tt + 1000 s_1_4 > 0.0
tt - t_1_4 - 1000.000000 s_1_4  > -998.017500
tt + 1000 s_2_4 > 0.0
tt - t_2_4 - 1000.000000 s_2_4  > -998.336264
tt + 1000 s_1_5 > 0.0
tt - t_1_5 - 1002.363811 s_1_5  + 0.590953 s_1_2  + 0.590953 s_1_1  + 0.590953 s_1_3  + 0.590953 s_1_4  > -999.908800
tt + 1000 s_2_5 > 0.0
tt - t_2_5 - 1001.462042 s_2_5  + 0.365510 s_2_2  + 0.365510 s_2_1  + 0.365510 s_2_3  + 0.365510 s_2_4  > -999.555571
s_1_1 + s_2_1 = 1
s_1_2 + s_2_2 = 1
s_1_3 + s_2_3 = 1
s_1_4 + s_2_4 = 1
s_1_5 + s_2_5 = 1
s_1_1 + s_1_2 + 1000 r_1_1_2 >= 2
- s_1_1 - s_1_2 - 1000 r_1_1_2 >= -1001
t_1_1 - t_1_2 - 1000.000000 u_1_1_2 - 0.000000 s_1_2  + 2000.000000 r_1_1_2 > -990.321000
s_2_1 + s_2_2 + 1000 r_2_1_2 >= 2
- s_2_1 - s_2_2 - 1000 r_2_1_2 >= -1001
t_2_1 - t_2_2 - 1000.000000 u_2_1_2 - 0.000000 s_2_2  + 2000.000000 r_2_1_2 > -994.111000
s_1_1 + s_1_3 + 1000 r_1_1_3 >= 2
- s_1_1 - s_1_3 - 1000 r_1_1_3 >= -1001
t_1_1 - t_1_3 - 1000.000000 u_1_1_3 - 0.000000 s_1_3  + 2000.000000 r_1_1_3 > -994.365200
s_2_1 + s_2_3 + 1000 r_2_1_3 >= 2
- s_2_1 - s_2_3 - 1000 r_2_1_3 >= -1001
t_2_1 - t_2_3 - 1000.000000 u_2_1_3 - 0.000000 s_2_3  + 2000.000000 r_2_1_3 > -996.500083
s_1_1 + s_1_4 + 1000 r_1_1_4 >= 2
- s_1_1 - s_1_4 - 1000 r_1_1_4 >= -1001
t_1_1 - t_1_4 - 1000.000000 u_1_1_4 - 0.000000 s_1_4  + 2000.000000 r_1_1_4 > -998.017500
s_2_1 + s_2_4 + 1000 r_2_1_4 >= 2
- s_2_1 - s_2_4 - 1000 r_2_1_4 >= -1001
t_2_1 - t_2_4 - 1000.000000 u_2_1_4 - 0.000000 s_2_4  + 2000.000000 r_2_1_4 > -998.336264
t_1_5 - t_1_1 - 1000.000000 s_1_1  > -998.514000
t_1_5 - t_2_1 - 1000.000000 s_2_1  > -998.886556
t_2_5 - t_1_1 - 1000.000000 s_1_1  > -998.514000
t_2_5 - t_2_1 - 1000.000000 s_2_1  > -998.886556
s_1_2 + s_1_1 + 1000 r_1_1_2 >= 2
- s_1_2 - s_1_1 - 1000 r_1_1_2 >= -1001
t_1_2 - t_1_1 + 1000.000000 u_1_1_2 - 0.000000 s_1_1  + 2000.000000 r_1_1_2 > 1.486000
s_2_2 + s_2_1 + 1000 r_2_1_2 >= 2
- s_2_2 - s_2_1 - 1000 r_2_1_2 >= -1001
t_2_2 - t_2_1 + 1000.000000 u_2_1_2 - 0.000000 s_2_1  + 2000.000000 r_2_1_2 > 1.113444
s_1_2 + s_1_3 + 1000 r_1_2_3 >= 2
- s_1_2 - s_1_3 - 1000 r_1_2_3 >= -1001
t_1_2 - t_1_3 - 1000.000000 u_1_2_3 - 0.000000 s_1_3  + 2000.000000 r_1_2_3 > -994.365200
s_2_2 + s_2_3 + 1000 r_2_2_3 >= 2
- s_2_2 - s_2_3 - 1000 r_2_2_3 >= -1001
t_2_2 - t_2_3 - 1000.000000 u_2_2_3 - 0.000000 s_2_3  + 2000.000000 r_2_2_3 > -996.500083
s_1_2 + s_1_4 + 1000 r_1_2_4 >= 2
- s_1_2 - s_1_4 - 1000 r_1_2_4 >= -1001
t_1_2 - t_1_4 - 1000.000000 u_1_2_4 - 0.000000 s_1_4  + 2000.000000 r_1_2_4 > -998.017500
s_2_2 + s_2_4 + 1000 r_2_2_4 >= 2
- s_2_2 - s_2_4 - 1000 r_2_2_4 >= -1001
t_2_2 - t_2_4 - 1000.000000 u_2_2_4 - 0.000000 s_2_4  + 2000.000000 r_2_2_4 > -998.336264
t_1_5 - t_1_2 - 1000.000000 s_1_2  > -990.321000
t_1_5 - t_2_2 - 1000.000000 s_2_2  > -994.111000
t_2_5 - t_1_2 - 1000.000000 s_1_2  > -990.321000
t_2_5 - t_2_2 - 1000.000000 s_2_2  > -994.111000
s_1_3 + s_1_1 + 1000 r_1_1_3 >= 2
- s_1_3 - s_1_1 - 1000 r_1_1_3 >= -1001
t_1_3 - t_1_1 + 1000.000000 u_1_1_3 - 0.000000 s_1_1  + 2000.000000 r_1_1_3 > 1.486000
s_2_3 + s_2_1 + 1000 r_2_1_3 >= 2
- s_2_3 - s_2_1 - 1000 r_2_1_3 >= -1001
t_2_3 - t_2_1 + 1000.000000 u_2_1_3 - 0.000000 s_2_1  + 2000.000000 r_2_1_3 > 1.113444
s_1_3 + s_1_2 + 1000 r_1_2_3 >= 2
- s_1_3 - s_1_2 - 1000 r_1_2_3 >= -1001
t_1_3 - t_1_2 + 1000.000000 u_1_2_3 - 0.000000 s_1_2  + 2000.000000 r_1_2_3 > 9.679000
s_2_3 + s_2_2 + 1000 r_2_2_3 >= 2
- s_2_3 - s_2_2 - 1000 r_2_2_3 >= -1001
t_2_3 - t_2_2 + 1000.000000 u_2_2_3 - 0.000000 s_2_2  + 2000.000000 r_2_2_3 > 5.889000
s_1_3 + s_1_4 + 1000 r_1_3_4 >= 2
- s_1_3 - s_1_4 - 1000 r_1_3_4 >= -1001
t_1_3 - t_1_4 - 1000.000000 u_1_3_4 - 0.000000 s_1_4  + 2000.000000 r_1_3_4 > -998.017500
s_2_3 + s_2_4 + 1000 r_2_3_4 >= 2
- s_2_3 - s_2_4 - 1000 r_2_3_4 >= -1001
t_2_3 - t_2_4 - 1000.000000 u_2_3_4 - 0.000000 s_2_4  + 2000.000000 r_2_3_4 > -998.336264
t_1_5 - t_1_3 - 1000.000000 s_1_3  > -994.365200
t_1_5 - t_2_3 - 1000.000000 s_2_3  > -996.500083
t_2_5 - t_1_3 - 1000.000000 s_1_3  > -994.365200
t_2_5 - t_2_3 - 1000.000000 s_2_3  > -996.500083
s_1_4 + s_1_1 + 1000 r_1_1_4 >= 2
- s_1_4 - s_1_1 - 1000 r_1_1_4 >= -1001
t_1_4 - t_1_1 + 1000.000000 u_1_1_4 - 0.000000 s_1_1  + 2000.000000 r_1_1_4 > 1.486000
s_2_4 + s_2_1 + 1000 r_2_1_4 >= 2
- s_2_4 - s_2_1 - 1000 r_2_1_4 >= -1001
t_2_4 - t_2_1 + 1000.000000 u_2_1_4 - 0.000000 s_2_1  + 2000.000000 r_2_1_4 > 1.113444
s_1_4 + s_1_2 + 1000 r_1_2_4 >= 2
- s_1_4 - s_1_2 - 1000 r_1_2_4 >= -1001
t_1_4 - t_1_2 + 1000.000000 u_1_2_4 - 0.000000 s_1_2  + 2000.000000 r_1_2_4 > 9.679000
s_2_4 + s_2_2 + 1000 r_2_2_4 >= 2
- s_2_4 - s_2_2 - 1000 r_2_2_4 >= -1001
t_2_4 - t_2_2 + 1000.000000 u_2_2_4 - 0.000000 s_2_2  + 2000.000000 r_2_2_4 > 5.889000
s_1_4 + s_1_3 + 1000 r_1_3_4 >= 2
- s_1_4 - s_1_3 - 1000 r_1_3_4 >= -1001
t_1_4 - t_1_3 + 1000.000000 u_1_3_4 - 0.000000 s_1_3  + 2000.000000 r_1_3_4 > 5.634800
s_2_4 + s_2_3 + 1000 r_2_3_4 >= 2
- s_2_4 - s_2_3 - 1000 r_2_3_4 >= -1001
t_2_4 - t_2_3 + 1000.000000 u_2_3_4 - 0.000000 s_2_3  + 2000.000000 r_2_3_4 > 3.499917
t_1_5 - t_1_4 - 1000.000000 s_1_4  > -998.017500
t_1_5 - t_2_4 - 1000.000000 s_2_4  > -998.336264
t_2_5 - t_1_4 - 1000.000000 s_1_4  > -998.017500
t_2_5 - t_2_4 - 1000.000000 s_2_4  > -998.336264
Binary
s_1_1
s_2_1
s_1_2
s_2_2
s_1_3
s_2_3
s_1_4
s_2_4
s_1_5
s_2_5
u_1_1_2
r_1_1_2
u_2_1_2
r_2_1_2
u_1_1_3
r_1_1_3
u_2_1_3
r_2_1_3
u_1_1_4
r_1_1_4
u_2_1_4
r_2_1_4
u_1_2_3
r_1_2_3
u_2_2_3
r_2_2_3
u_1_2_4
r_1_2_4
u_2_2_4
r_2_2_4
u_1_3_4
r_1_3_4
u_2_3_4
r_2_3_4

End
